(declare-fun temp559_1 () (_ BitVec 64))
(declare-fun var525626 () (_ BitVec 64))
(declare-fun temp559_2 () (_ BitVec 64))
(declare-fun var787770 () (_ BitVec 64))
(declare-fun temp559_3 () (_ BitVec 64))
(declare-fun var1836346 () (_ BitVec 64))
(declare-fun temp559_4 () (_ BitVec 64))
(declare-fun var2098490 () (_ BitVec 64))
(assert (= temp559_1 #x0000000000000000))
(assert (= var525626 temp559_1))
(assert (= temp559_2 #x0000000000000000))
(assert (= var787770 temp559_2))
(assert (= temp559_3 #x0000000000000000))
(assert (= var1836346 temp559_3))
(assert (= temp559_4 #x0000000000000000))
(assert (= var2098490 temp559_4))
(model-add temp559_1 () (_ BitVec 64) #x0000000000000000)
(model-add var525626 () (_ BitVec 64) #x0000000000000000)
(model-add temp559_2 () (_ BitVec 64) #x0000000000000000)
(model-add var787770 () (_ BitVec 64) #x0000000000000000)
(model-add temp559_3 () (_ BitVec 64) #x0000000000000000)
(model-add var1836346 () (_ BitVec 64) #x0000000000000000)
(model-add temp559_4 () (_ BitVec 64) #x0000000000000000)
(model-add var2098490 () (_ BitVec 64) #x0000000000000000)





